(set-info :smt-lib-version 2.6)
(set-logic QF_NIA)
(set-info :source |
Generated by: Cristina Borralleras, Daniel Larraz, Albert Oliveras, Enric Rodriguez-Carbonell, Albert Rubio
Generated on: 2017-04-27
Generator: VeryMax
Application: Termination proving
Target solver: barcelogic
|)
(set-info :license "https://creativecommons.org/licenses/by/4.0/")
(set-info :category "industrial")
(set-info :status sat)
(declare-fun global_invc1_3 () Int)
(declare-fun global_invc1_1 () Int)
(declare-fun global_invc1_2 () Int)
(declare-fun global_invc1_0 () Int)
(declare-fun lam0n0 () Int)
(declare-fun lam0n5 () Int)
(declare-fun global_invc1_4 () Int)
(declare-fun lam0n1 () Int)
(declare-fun lam0n3 () Int)
(declare-fun lam0n4 () Int)
(declare-fun lam0n2 () Int)
(declare-fun lam1n0 () Int)
(declare-fun lam1n1 () Int)
(declare-fun lam1n3 () Int)
(declare-fun lam1n4 () Int)
(declare-fun lam1n9 () Int)
(declare-fun lam1n10 () Int)
(declare-fun lam1n11 () Int)
(declare-fun lam1n12 () Int)
(declare-fun lam1n13 () Int)
(declare-fun lam1n5 () Int)
(declare-fun lam1n7 () Int)
(declare-fun lam1n2 () Int)
(declare-fun lam1n8 () Int)
(declare-fun lam1n6 () Int)
(declare-fun term_invc1_3 () Int)
(declare-fun term_invc1_1 () Int)
(declare-fun term_invc1_2 () Int)
(declare-fun term_invc1_0 () Int)
(declare-fun lam2n0 () Int)
(declare-fun lam2n1 () Int)
(declare-fun lam2n3 () Int)
(declare-fun lam2n4 () Int)
(declare-fun lam2n9 () Int)
(declare-fun lam2n10 () Int)
(declare-fun lam2n11 () Int)
(declare-fun lam2n12 () Int)
(declare-fun lam2n13 () Int)
(declare-fun lam2n14 () Int)
(declare-fun lam2n15 () Int)
(declare-fun lam2n16 () Int)
(declare-fun lam2n17 () Int)
(declare-fun lam2n18 () Int)
(declare-fun lam2n19 () Int)
(declare-fun lam2n20 () Int)
(declare-fun lam2n21 () Int)
(declare-fun lam2n22 () Int)
(declare-fun lam2n23 () Int)
(declare-fun lam2n24 () Int)
(declare-fun lam2n25 () Int)
(declare-fun lam2n26 () Int)
(declare-fun lam2n27 () Int)
(declare-fun lam2n28 () Int)
(declare-fun lam2n29 () Int)
(declare-fun lam2n30 () Int)
(declare-fun lam2n31 () Int)
(declare-fun lam2n32 () Int)
(declare-fun lam2n33 () Int)
(declare-fun lam2n34 () Int)
(declare-fun lam2n35 () Int)
(declare-fun lam2n36 () Int)
(declare-fun lam2n37 () Int)
(declare-fun lam2n38 () Int)
(declare-fun lam2n39 () Int)
(declare-fun lam2n40 () Int)
(declare-fun lam2n41 () Int)
(declare-fun lam2n42 () Int)
(declare-fun lam2n43 () Int)
(declare-fun lam2n44 () Int)
(declare-fun lam2n45 () Int)
(declare-fun lam2n46 () Int)
(declare-fun lam2n47 () Int)
(declare-fun lam2n5 () Int)
(declare-fun lam2n7 () Int)
(declare-fun term_invc1_4 () Int)
(declare-fun lam2n2 () Int)
(declare-fun lam2n8 () Int)
(declare-fun lam2n6 () Int)
(declare-fun non_inc2_L_L_L_L_L_L_L () Bool)
(declare-fun lam3n0 () Int)
(declare-fun lam3n1 () Int)
(declare-fun lam3n3 () Int)
(declare-fun lam3n4 () Int)
(declare-fun lam3n9 () Int)
(declare-fun lam3n10 () Int)
(declare-fun lam3n11 () Int)
(declare-fun lam3n12 () Int)
(declare-fun lam3n13 () Int)
(declare-fun lam3n14 () Int)
(declare-fun lam3n15 () Int)
(declare-fun lam3n16 () Int)
(declare-fun lam3n17 () Int)
(declare-fun lam3n18 () Int)
(declare-fun lam3n19 () Int)
(declare-fun lam3n20 () Int)
(declare-fun lam3n21 () Int)
(declare-fun lam3n22 () Int)
(declare-fun lam3n23 () Int)
(declare-fun lam3n24 () Int)
(declare-fun lam3n25 () Int)
(declare-fun lam3n26 () Int)
(declare-fun lam3n27 () Int)
(declare-fun lam3n28 () Int)
(declare-fun lam3n29 () Int)
(declare-fun lam3n30 () Int)
(declare-fun lam3n31 () Int)
(declare-fun lam3n32 () Int)
(declare-fun lam3n33 () Int)
(declare-fun lam3n34 () Int)
(declare-fun lam3n35 () Int)
(declare-fun lam3n36 () Int)
(declare-fun lam3n37 () Int)
(declare-fun lam3n38 () Int)
(declare-fun lam3n39 () Int)
(declare-fun lam3n40 () Int)
(declare-fun lam3n41 () Int)
(declare-fun lam3n42 () Int)
(declare-fun lam3n43 () Int)
(declare-fun lam3n44 () Int)
(declare-fun lam3n45 () Int)
(declare-fun lam3n46 () Int)
(declare-fun lam3n47 () Int)
(declare-fun lam3n49 () Int)
(declare-fun lam3n48 () Int)
(declare-fun lam3n5 () Int)
(declare-fun lam3n7 () Int)
(declare-fun rfc0 () Int)
(declare-fun lam3n2 () Int)
(declare-fun rfc1 () Int)
(declare-fun rfc2 () Int)
(declare-fun lam3n8 () Int)
(declare-fun rfc3 () Int)
(declare-fun lam3n6 () Int)
(declare-fun disabled2_L_L_L_L_L_L_L () Bool)
(declare-fun bounded2_L_L_L_L_L_L_L () Bool)
(declare-fun lam4n0 () Int)
(declare-fun lam4n1 () Int)
(declare-fun lam4n3 () Int)
(declare-fun lam4n4 () Int)
(declare-fun lam4n9 () Int)
(declare-fun lam4n10 () Int)
(declare-fun lam4n11 () Int)
(declare-fun lam4n12 () Int)
(declare-fun lam4n13 () Int)
(declare-fun lam4n14 () Int)
(declare-fun lam4n15 () Int)
(declare-fun lam4n16 () Int)
(declare-fun lam4n17 () Int)
(declare-fun lam4n18 () Int)
(declare-fun lam4n19 () Int)
(declare-fun lam4n20 () Int)
(declare-fun lam4n21 () Int)
(declare-fun lam4n22 () Int)
(declare-fun lam4n23 () Int)
(declare-fun lam4n24 () Int)
(declare-fun lam4n25 () Int)
(declare-fun lam4n26 () Int)
(declare-fun lam4n27 () Int)
(declare-fun lam4n28 () Int)
(declare-fun lam4n29 () Int)
(declare-fun lam4n30 () Int)
(declare-fun lam4n31 () Int)
(declare-fun lam4n32 () Int)
(declare-fun lam4n33 () Int)
(declare-fun lam4n34 () Int)
(declare-fun lam4n35 () Int)
(declare-fun lam4n36 () Int)
(declare-fun lam4n37 () Int)
(declare-fun lam4n38 () Int)
(declare-fun lam4n39 () Int)
(declare-fun lam4n40 () Int)
(declare-fun lam4n41 () Int)
(declare-fun lam4n42 () Int)
(declare-fun lam4n43 () Int)
(declare-fun lam4n44 () Int)
(declare-fun lam4n45 () Int)
(declare-fun lam4n46 () Int)
(declare-fun lam4n47 () Int)
(declare-fun lam4n48 () Int)
(declare-fun lam4n5 () Int)
(declare-fun lam4n7 () Int)
(declare-fun rfc4 () Int)
(declare-fun lam4n2 () Int)
(declare-fun lam4n8 () Int)
(declare-fun lam4n6 () Int)
(declare-fun dec2_L_L_L_L_L_L_L () Bool)
(declare-fun lam5n0 () Int)
(declare-fun lam5n1 () Int)
(declare-fun lam5n3 () Int)
(declare-fun lam5n4 () Int)
(declare-fun lam5n9 () Int)
(declare-fun lam5n10 () Int)
(declare-fun lam5n11 () Int)
(declare-fun lam5n12 () Int)
(declare-fun lam5n13 () Int)
(declare-fun lam5n14 () Int)
(declare-fun lam5n15 () Int)
(declare-fun lam5n16 () Int)
(declare-fun lam5n17 () Int)
(declare-fun lam5n18 () Int)
(declare-fun lam5n19 () Int)
(declare-fun lam5n20 () Int)
(declare-fun lam5n21 () Int)
(declare-fun lam5n22 () Int)
(declare-fun lam5n23 () Int)
(declare-fun lam5n24 () Int)
(declare-fun lam5n25 () Int)
(declare-fun lam5n26 () Int)
(declare-fun lam5n27 () Int)
(declare-fun lam5n28 () Int)
(declare-fun lam5n29 () Int)
(declare-fun lam5n30 () Int)
(declare-fun lam5n31 () Int)
(declare-fun lam5n32 () Int)
(declare-fun lam5n33 () Int)
(declare-fun lam5n34 () Int)
(declare-fun lam5n35 () Int)
(declare-fun lam5n36 () Int)
(declare-fun lam5n37 () Int)
(declare-fun lam5n38 () Int)
(declare-fun lam5n39 () Int)
(declare-fun lam5n40 () Int)
(declare-fun lam5n41 () Int)
(declare-fun lam5n42 () Int)
(declare-fun lam5n43 () Int)
(declare-fun lam5n44 () Int)
(declare-fun lam5n45 () Int)
(declare-fun lam5n46 () Int)
(declare-fun lam5n47 () Int)
(declare-fun lam5n48 () Int)
(declare-fun lam5n5 () Int)
(declare-fun lam5n7 () Int)
(declare-fun lam5n2 () Int)
(declare-fun lam5n8 () Int)
(declare-fun lam5n6 () Int)
(declare-fun bnd_and_dec2_L_L_L_L_L_L_L () Bool)
(declare-fun GLOBAL_NT_1 () Bool)
(declare-fun global_V0_1 () Int)
(declare-fun global_V1_1 () Int)
(declare-fun global_V2_1 () Int)
(declare-fun global_V3_1 () Int)
(declare-fun TERM_NT_1 () Bool)
(declare-fun term_V0_1 () Int)
(declare-fun term_V1_1 () Int)
(declare-fun term_V2_1 () Int)
(declare-fun term_V3_1 () Int)
(declare-fun ALL_NON_INC_0 () Bool)
(declare-fun DIS_OR_ALL_NON_INC_0 () Bool)
(declare-fun SOME_BND_AND_DEC_0 () Bool)
(declare-fun V1_NIV () Int)
(declare-fun V0_NIV () Int)
(declare-fun V2_NIV () Int)
(declare-fun V3_NIV () Int)
(declare-fun V5_NIV () Int)
(declare-fun V4_NIV () Int)
(declare-fun V6_NIV () Int)
(declare-fun V7_NIV () Int)
(assert ( and ( >= global_invc1_3 ( - 1 ) ) ( <= global_invc1_3 1 ) ( >= global_invc1_1 ( - 1 ) ) ( <= global_invc1_1 1 ) ( >= global_invc1_2 ( - 1 ) ) ( <= global_invc1_2 1 ) ( >= global_invc1_0 ( - 1 ) ) ( <= global_invc1_0 1 ) ( and ( >= lam0n0 0 ) ( <= 0 lam0n5 ) ( < lam0n5 1 ) ( and ( = ( * ( - 1 ) lam0n0 ) ( + global_invc1_4 ( * ( - 1 ) lam0n5 ) ) ) ( = ( * lam0n1 1 ) 0 ) ( = ( * lam0n3 1 ) 0 ) ( = ( * lam0n4 1 ) 0 ) ( = ( * lam0n1 ( - 1 ) ) global_invc1_0 ) ( = ( * lam0n2 ( - 1 ) ) global_invc1_1 ) ( = ( * lam0n3 ( - 1 ) ) global_invc1_2 ) ( = ( * lam0n4 ( - 1 ) ) global_invc1_3 ) ) ) ( and ( >= lam1n0 0 ) ( >= lam1n1 0 ) ( >= lam1n3 0 ) ( >= lam1n4 0 ) ( >= lam1n9 0 ) ( >= lam1n10 0 ) ( >= lam1n11 0 ) ( >= lam1n12 0 ) ( <= 0 lam1n13 ) ( < lam1n13 1 ) ( and ( = ( + ( * ( - 1 ) lam1n0 ) ( * lam1n1 1 ) ( * lam1n3 2 ) ( * lam1n5 1 ) ( * lam1n7 1 ) ( * lam1n9 ( - 1 ) ) ( * lam1n12 global_invc1_4 ) ) ( + global_invc1_4 ( * ( - 1 ) lam1n13 ) ) ) ( = ( + ( * lam1n1 1 ) ( * lam1n3 1 ) ( * lam1n5 1 ) ( * lam1n12 global_invc1_0 ) ) 0 ) ( = ( + ( * lam1n2 1 ) ( * lam1n9 ( - 1 ) ) ( * lam1n10 1 ) ( * lam1n11 ( - 1 ) ) ( * lam1n12 global_invc1_1 ) ) 0 ) ( = ( + ( * lam1n1 ( - 1 ) ) ( * lam1n3 ( - 1 ) ) ( * lam1n7 1 ) ( * lam1n12 global_invc1_2 ) ) 0 ) ( = ( + ( * lam1n8 1 ) ( * lam1n12 global_invc1_3 ) ) 0 ) ( = ( * lam1n5 ( - 1 ) ) global_invc1_0 ) ( = ( * lam1n6 ( - 1 ) ) global_invc1_1 ) ( = ( * lam1n7 ( - 1 ) ) global_invc1_2 ) ( = ( * lam1n8 ( - 1 ) ) global_invc1_3 ) ) ) ( >= term_invc1_3 ( - 1 ) ) ( <= term_invc1_3 1 ) ( >= term_invc1_1 ( - 1 ) ) ( <= term_invc1_1 1 ) ( >= term_invc1_2 ( - 1 ) ) ( <= term_invc1_2 1 ) ( >= term_invc1_0 ( - 1 ) ) ( <= term_invc1_0 1 ) ( and ( >= lam2n0 0 ) ( >= lam2n1 0 ) ( >= lam2n3 0 ) ( >= lam2n4 0 ) ( >= lam2n9 0 ) ( >= lam2n10 0 ) ( >= lam2n11 0 ) ( >= lam2n12 0 ) ( >= lam2n13 0 ) ( >= lam2n14 0 ) ( >= lam2n15 0 ) ( >= lam2n16 0 ) ( >= lam2n17 0 ) ( >= lam2n18 0 ) ( >= lam2n19 0 ) ( >= lam2n20 0 ) ( >= lam2n21 0 ) ( >= lam2n22 0 ) ( >= lam2n23 0 ) ( >= lam2n24 0 ) ( >= lam2n25 0 ) ( >= lam2n26 0 ) ( >= lam2n27 0 ) ( >= lam2n28 0 ) ( >= lam2n29 0 ) ( >= lam2n30 0 ) ( >= lam2n31 0 ) ( >= lam2n32 0 ) ( >= lam2n33 0 ) ( >= lam2n34 0 ) ( >= lam2n35 0 ) ( >= lam2n36 0 ) ( >= lam2n37 0 ) ( >= lam2n38 0 ) ( >= lam2n39 0 ) ( >= lam2n40 0 ) ( >= lam2n41 0 ) ( >= lam2n42 0 ) ( >= lam2n43 0 ) ( >= lam2n44 0 ) ( >= lam2n45 0 ) ( >= lam2n46 0 ) ( <= 0 lam2n47 ) ( < lam2n47 1 ) ( and ( = ( + ( * ( - 1 ) lam2n0 ) ( * lam2n1 1 ) ( * lam2n3 2 ) ( * lam2n5 1 ) ( * lam2n7 1 ) ( * lam2n9 ( - 1 ) ) ( * lam2n12 50001 ) ( * lam2n13 50001 ) ( * lam2n14 50001 ) ( * lam2n15 1 ) ( * lam2n16 50001 ) ( * lam2n18 ( - 51 ) ) ( * lam2n19 50001 ) ( * lam2n20 1 ) ( * lam2n21 2 ) ( * lam2n22 50001 ) ( * lam2n23 2 ) ( * lam2n24 100004 ) ( * lam2n25 1 ) ( * lam2n27 1 ) ( * lam2n28 2 ) ( * lam2n29 2 ) ( * lam2n30 20 ) ( * lam2n31 27 ) ( * lam2n32 52 ) ( * lam2n33 55 ) ( * lam2n34 83 ) ( * lam2n35 61 ) ( * lam2n36 84 ) ( * lam2n37 81 ) ( * lam2n38 62 ) ( * lam2n39 52 ) ( * lam2n40 102 ) ( * lam2n41 93 ) ( * lam2n42 102 ) ( * lam2n43 73 ) ( * lam2n44 94 ) ( * lam2n45 99 ) ( * lam2n46 global_invc1_4 ) ) ( + term_invc1_4 ( * ( - 1 ) lam2n47 ) ) ) ( = ( + ( * lam2n1 1 ) ( * lam2n3 1 ) ( * lam2n5 1 ) ( * lam2n12 ( - 1 ) ) ( * lam2n13 ( - 1 ) ) ( * lam2n15 ( - 1 ) ) ( * lam2n16 ( - 1 ) ) ( * lam2n17 ( - 1 ) ) ( * lam2n19 ( - 2 ) ) ( * lam2n20 ( - 1 ) ) ( * lam2n21 ( - 1 ) ) ( * lam2n23 1 ) ( * lam2n24 1 ) ( * lam2n25 ( - 1 ) ) ( * lam2n29 ( - 1 ) ) ( * lam2n31 ( - 1 ) ) ( * lam2n32 ( - 1 ) ) ( * lam2n34 ( - 1 ) ) ( * lam2n35 ( - 1 ) ) ( * lam2n36 ( - 1 ) ) ( * lam2n38 ( - 1 ) ) ( * lam2n40 ( - 1 ) ) ( * lam2n41 ( - 1 ) ) ( * lam2n44 ( - 1 ) ) ( * lam2n45 ( - 1 ) ) ( * lam2n46 global_invc1_0 ) ) 0 ) ( = ( + ( * lam2n2 1 ) ( * lam2n9 ( - 1 ) ) ( * lam2n10 1 ) ( * lam2n11 ( - 1 ) ) ( * lam2n13 ( - 1 ) ) ( * lam2n14 1 ) ( * lam2n16 ( - 1 ) ) ( * lam2n17 1 ) ( * lam2n19 1 ) ( * lam2n21 1 ) ( * lam2n22 2 ) ( * lam2n26 1 ) ( * lam2n27 1 ) ( * lam2n31 ( - 1 ) ) ( * lam2n32 1 ) ( * lam2n38 1 ) ( * lam2n40 1 ) ( * lam2n41 1 ) ( * lam2n43 1 ) ( * lam2n46 global_invc1_1 ) ) 0 ) ( = ( + ( * lam2n1 ( - 1 ) ) ( * lam2n3 ( - 1 ) ) ( * lam2n7 1 ) ( * lam2n13 ( - 1 ) ) ( * lam2n14 ( - 1 ) ) ( * lam2n18 ( - 1 ) ) ( * lam2n19 1 ) ( * lam2n22 ( - 1 ) ) ( * lam2n23 ( - 1 ) ) ( * lam2n24 ( - 2 ) ) ( * lam2n25 ( - 1 ) ) ( * lam2n26 ( - 1 ) ) ( * lam2n27 ( - 1 ) ) ( * lam2n28 ( - 1 ) ) ( * lam2n30 ( - 1 ) ) ( * lam2n33 ( - 1 ) ) ( * lam2n37 ( - 1 ) ) ( * lam2n39 ( - 1 ) ) ( * lam2n42 ( - 1 ) ) ( * lam2n43 ( - 1 ) ) ( * lam2n46 global_invc1_2 ) ) 0 ) ( = ( + ( * lam2n8 1 ) ( * lam2n13 1 ) ( * lam2n14 ( - 1 ) ) ( * lam2n16 1 ) ( * lam2n17 1 ) ( * lam2n19 2 ) ( * lam2n20 1 ) ( * lam2n22 ( - 2 ) ) ( * lam2n24 2 ) ( * lam2n25 ( - 1 ) ) ( * lam2n26 ( - 1 ) ) ( * lam2n27 ( - 1 ) ) ( * lam2n28 ( - 1 ) ) ( * lam2n29 1 ) ( * lam2n32 1 ) ( * lam2n33 1 ) ( * lam2n34 1 ) ( * lam2n36 1 ) ( * lam2n39 ( - 1 ) ) ( * lam2n41 1 ) ( * lam2n42 1 ) ( * lam2n43 ( - 1 ) ) ( * lam2n44 1 ) ( * lam2n45 1 ) ( * lam2n46 global_invc1_3 ) ) 0 ) ( = ( * lam2n5 ( - 1 ) ) term_invc1_0 ) ( = ( * lam2n6 ( - 1 ) ) term_invc1_1 ) ( = ( * lam2n7 ( - 1 ) ) term_invc1_2 ) ( = ( * lam2n8 ( - 1 ) ) term_invc1_3 ) ) ) ( = non_inc2_L_L_L_L_L_L_L ( and ( >= lam3n0 0 ) ( >= lam3n1 0 ) ( >= lam3n3 0 ) ( >= lam3n4 0 ) ( >= lam3n9 0 ) ( >= lam3n10 0 ) ( >= lam3n11 0 ) ( >= lam3n12 0 ) ( >= lam3n13 0 ) ( >= lam3n14 0 ) ( >= lam3n15 0 ) ( >= lam3n16 0 ) ( >= lam3n17 0 ) ( >= lam3n18 0 ) ( >= lam3n19 0 ) ( >= lam3n20 0 ) ( >= lam3n21 0 ) ( >= lam3n22 0 ) ( >= lam3n23 0 ) ( >= lam3n24 0 ) ( >= lam3n25 0 ) ( >= lam3n26 0 ) ( >= lam3n27 0 ) ( >= lam3n28 0 ) ( >= lam3n29 0 ) ( >= lam3n30 0 ) ( >= lam3n31 0 ) ( >= lam3n32 0 ) ( >= lam3n33 0 ) ( >= lam3n34 0 ) ( >= lam3n35 0 ) ( >= lam3n36 0 ) ( >= lam3n37 0 ) ( >= lam3n38 0 ) ( >= lam3n39 0 ) ( >= lam3n40 0 ) ( >= lam3n41 0 ) ( >= lam3n42 0 ) ( >= lam3n43 0 ) ( >= lam3n44 0 ) ( >= lam3n45 0 ) ( >= lam3n46 0 ) ( >= lam3n47 0 ) ( <= 0 lam3n49 ) ( < lam3n49 1 ) ( <= lam3n48 1 ) ( >= lam3n48 0 ) ( and ( > ( + ( * ( - 1 ) lam3n0 ) ( * lam3n1 1 ) ( * lam3n3 2 ) ( * lam3n5 1 ) ( * lam3n7 1 ) ( * lam3n9 ( - 1 ) ) ( * lam3n12 50001 ) ( * lam3n13 50001 ) ( * lam3n14 50001 ) ( * lam3n15 1 ) ( * lam3n16 50001 ) ( * lam3n18 ( - 51 ) ) ( * lam3n19 50001 ) ( * lam3n20 1 ) ( * lam3n21 2 ) ( * lam3n22 50001 ) ( * lam3n23 2 ) ( * lam3n24 100004 ) ( * lam3n25 1 ) ( * lam3n27 1 ) ( * lam3n28 2 ) ( * lam3n29 2 ) ( * lam3n30 20 ) ( * lam3n31 27 ) ( * lam3n32 52 ) ( * lam3n33 55 ) ( * lam3n34 83 ) ( * lam3n35 61 ) ( * lam3n36 84 ) ( * lam3n37 81 ) ( * lam3n38 62 ) ( * lam3n39 52 ) ( * lam3n40 102 ) ( * lam3n41 93 ) ( * lam3n42 102 ) ( * lam3n43 73 ) ( * lam3n44 94 ) ( * lam3n45 99 ) ( * lam3n46 global_invc1_4 ) ( * lam3n47 term_invc1_4 ) ( * lam3n48 ( + 1 ( * ( - 1 ) lam3n49 ) ) ) ) 0 ) ( = ( + ( * lam3n1 1 ) ( * lam3n3 1 ) ( * lam3n5 1 ) ( * lam3n12 ( - 1 ) ) ( * lam3n13 ( - 1 ) ) ( * lam3n15 ( - 1 ) ) ( * lam3n16 ( - 1 ) ) ( * lam3n17 ( - 1 ) ) ( * lam3n19 ( - 2 ) ) ( * lam3n20 ( - 1 ) ) ( * lam3n21 ( - 1 ) ) ( * lam3n23 1 ) ( * lam3n24 1 ) ( * lam3n25 ( - 1 ) ) ( * lam3n29 ( - 1 ) ) ( * lam3n31 ( - 1 ) ) ( * lam3n32 ( - 1 ) ) ( * lam3n34 ( - 1 ) ) ( * lam3n35 ( - 1 ) ) ( * lam3n36 ( - 1 ) ) ( * lam3n38 ( - 1 ) ) ( * lam3n40 ( - 1 ) ) ( * lam3n41 ( - 1 ) ) ( * lam3n44 ( - 1 ) ) ( * lam3n45 ( - 1 ) ) ( * lam3n46 global_invc1_0 ) ( * lam3n47 term_invc1_0 ) ( * lam3n48 rfc0 ) ) 0 ) ( = ( + ( * lam3n2 1 ) ( * lam3n9 ( - 1 ) ) ( * lam3n10 1 ) ( * lam3n11 ( - 1 ) ) ( * lam3n13 ( - 1 ) ) ( * lam3n14 1 ) ( * lam3n16 ( - 1 ) ) ( * lam3n17 1 ) ( * lam3n19 1 ) ( * lam3n21 1 ) ( * lam3n22 2 ) ( * lam3n26 1 ) ( * lam3n27 1 ) ( * lam3n31 ( - 1 ) ) ( * lam3n32 1 ) ( * lam3n38 1 ) ( * lam3n40 1 ) ( * lam3n41 1 ) ( * lam3n43 1 ) ( * lam3n46 global_invc1_1 ) ( * lam3n47 term_invc1_1 ) ( * lam3n48 rfc1 ) ) 0 ) ( = ( + ( * lam3n1 ( - 1 ) ) ( * lam3n3 ( - 1 ) ) ( * lam3n7 1 ) ( * lam3n13 ( - 1 ) ) ( * lam3n14 ( - 1 ) ) ( * lam3n18 ( - 1 ) ) ( * lam3n19 1 ) ( * lam3n22 ( - 1 ) ) ( * lam3n23 ( - 1 ) ) ( * lam3n24 ( - 2 ) ) ( * lam3n25 ( - 1 ) ) ( * lam3n26 ( - 1 ) ) ( * lam3n27 ( - 1 ) ) ( * lam3n28 ( - 1 ) ) ( * lam3n30 ( - 1 ) ) ( * lam3n33 ( - 1 ) ) ( * lam3n37 ( - 1 ) ) ( * lam3n39 ( - 1 ) ) ( * lam3n42 ( - 1 ) ) ( * lam3n43 ( - 1 ) ) ( * lam3n46 global_invc1_2 ) ( * lam3n47 term_invc1_2 ) ( * lam3n48 rfc2 ) ) 0 ) ( = ( + ( * lam3n8 1 ) ( * lam3n13 1 ) ( * lam3n14 ( - 1 ) ) ( * lam3n16 1 ) ( * lam3n17 1 ) ( * lam3n19 2 ) ( * lam3n20 1 ) ( * lam3n22 ( - 2 ) ) ( * lam3n24 2 ) ( * lam3n25 ( - 1 ) ) ( * lam3n26 ( - 1 ) ) ( * lam3n27 ( - 1 ) ) ( * lam3n28 ( - 1 ) ) ( * lam3n29 1 ) ( * lam3n32 1 ) ( * lam3n33 1 ) ( * lam3n34 1 ) ( * lam3n36 1 ) ( * lam3n39 ( - 1 ) ) ( * lam3n41 1 ) ( * lam3n42 1 ) ( * lam3n43 ( - 1 ) ) ( * lam3n44 1 ) ( * lam3n45 1 ) ( * lam3n46 global_invc1_3 ) ( * lam3n47 term_invc1_3 ) ( * lam3n48 rfc3 ) ) 0 ) ( = ( + ( * lam3n5 ( - 1 ) ) ( * lam3n48 ( * ( - 1 ) rfc0 ) ) ) 0 ) ( = ( + ( * lam3n6 ( - 1 ) ) ( * lam3n48 ( * ( - 1 ) rfc1 ) ) ) 0 ) ( = ( + ( * lam3n7 ( - 1 ) ) ( * lam3n48 ( * ( - 1 ) rfc2 ) ) ) 0 ) ( = ( + ( * lam3n8 ( - 1 ) ) ( * lam3n48 ( * ( - 1 ) rfc3 ) ) ) 0 ) ) ) ) ( = disabled2_L_L_L_L_L_L_L ( and ( = lam3n48 0 ) non_inc2_L_L_L_L_L_L_L ) ) ( = bounded2_L_L_L_L_L_L_L ( and ( >= lam4n0 0 ) ( >= lam4n1 0 ) ( >= lam4n3 0 ) ( >= lam4n4 0 ) ( >= lam4n9 0 ) ( >= lam4n10 0 ) ( >= lam4n11 0 ) ( >= lam4n12 0 ) ( >= lam4n13 0 ) ( >= lam4n14 0 ) ( >= lam4n15 0 ) ( >= lam4n16 0 ) ( >= lam4n17 0 ) ( >= lam4n18 0 ) ( >= lam4n19 0 ) ( >= lam4n20 0 ) ( >= lam4n21 0 ) ( >= lam4n22 0 ) ( >= lam4n23 0 ) ( >= lam4n24 0 ) ( >= lam4n25 0 ) ( >= lam4n26 0 ) ( >= lam4n27 0 ) ( >= lam4n28 0 ) ( >= lam4n29 0 ) ( >= lam4n30 0 ) ( >= lam4n31 0 ) ( >= lam4n32 0 ) ( >= lam4n33 0 ) ( >= lam4n34 0 ) ( >= lam4n35 0 ) ( >= lam4n36 0 ) ( >= lam4n37 0 ) ( >= lam4n38 0 ) ( >= lam4n39 0 ) ( >= lam4n40 0 ) ( >= lam4n41 0 ) ( >= lam4n42 0 ) ( >= lam4n43 0 ) ( >= lam4n44 0 ) ( >= lam4n45 0 ) ( >= lam4n46 0 ) ( >= lam4n47 0 ) ( <= 0 lam4n48 ) ( < lam4n48 1 ) ( and ( = ( + ( * ( - 1 ) lam4n0 ) ( * lam4n1 1 ) ( * lam4n3 2 ) ( * lam4n5 1 ) ( * lam4n7 1 ) ( * lam4n9 ( - 1 ) ) ( * lam4n12 50001 ) ( * lam4n13 50001 ) ( * lam4n14 50001 ) ( * lam4n15 1 ) ( * lam4n16 50001 ) ( * lam4n18 ( - 51 ) ) ( * lam4n19 50001 ) ( * lam4n20 1 ) ( * lam4n21 2 ) ( * lam4n22 50001 ) ( * lam4n23 2 ) ( * lam4n24 100004 ) ( * lam4n25 1 ) ( * lam4n27 1 ) ( * lam4n28 2 ) ( * lam4n29 2 ) ( * lam4n30 20 ) ( * lam4n31 27 ) ( * lam4n32 52 ) ( * lam4n33 55 ) ( * lam4n34 83 ) ( * lam4n35 61 ) ( * lam4n36 84 ) ( * lam4n37 81 ) ( * lam4n38 62 ) ( * lam4n39 52 ) ( * lam4n40 102 ) ( * lam4n41 93 ) ( * lam4n42 102 ) ( * lam4n43 73 ) ( * lam4n44 94 ) ( * lam4n45 99 ) ( * lam4n46 global_invc1_4 ) ( * lam4n47 term_invc1_4 ) ) ( + ( * ( - 1 ) rfc4 ) ( * ( - 1 ) lam4n48 ) ) ) ( = ( + ( * lam4n1 1 ) ( * lam4n3 1 ) ( * lam4n5 1 ) ( * lam4n12 ( - 1 ) ) ( * lam4n13 ( - 1 ) ) ( * lam4n15 ( - 1 ) ) ( * lam4n16 ( - 1 ) ) ( * lam4n17 ( - 1 ) ) ( * lam4n19 ( - 2 ) ) ( * lam4n20 ( - 1 ) ) ( * lam4n21 ( - 1 ) ) ( * lam4n23 1 ) ( * lam4n24 1 ) ( * lam4n25 ( - 1 ) ) ( * lam4n29 ( - 1 ) ) ( * lam4n31 ( - 1 ) ) ( * lam4n32 ( - 1 ) ) ( * lam4n34 ( - 1 ) ) ( * lam4n35 ( - 1 ) ) ( * lam4n36 ( - 1 ) ) ( * lam4n38 ( - 1 ) ) ( * lam4n40 ( - 1 ) ) ( * lam4n41 ( - 1 ) ) ( * lam4n44 ( - 1 ) ) ( * lam4n45 ( - 1 ) ) ( * lam4n46 global_invc1_0 ) ( * lam4n47 term_invc1_0 ) ) ( * ( - 1 ) rfc0 ) ) ( = ( + ( * lam4n2 1 ) ( * lam4n9 ( - 1 ) ) ( * lam4n10 1 ) ( * lam4n11 ( - 1 ) ) ( * lam4n13 ( - 1 ) ) ( * lam4n14 1 ) ( * lam4n16 ( - 1 ) ) ( * lam4n17 1 ) ( * lam4n19 1 ) ( * lam4n21 1 ) ( * lam4n22 2 ) ( * lam4n26 1 ) ( * lam4n27 1 ) ( * lam4n31 ( - 1 ) ) ( * lam4n32 1 ) ( * lam4n38 1 ) ( * lam4n40 1 ) ( * lam4n41 1 ) ( * lam4n43 1 ) ( * lam4n46 global_invc1_1 ) ( * lam4n47 term_invc1_1 ) ) ( * ( - 1 ) rfc1 ) ) ( = ( + ( * lam4n1 ( - 1 ) ) ( * lam4n3 ( - 1 ) ) ( * lam4n7 1 ) ( * lam4n13 ( - 1 ) ) ( * lam4n14 ( - 1 ) ) ( * lam4n18 ( - 1 ) ) ( * lam4n19 1 ) ( * lam4n22 ( - 1 ) ) ( * lam4n23 ( - 1 ) ) ( * lam4n24 ( - 2 ) ) ( * lam4n25 ( - 1 ) ) ( * lam4n26 ( - 1 ) ) ( * lam4n27 ( - 1 ) ) ( * lam4n28 ( - 1 ) ) ( * lam4n30 ( - 1 ) ) ( * lam4n33 ( - 1 ) ) ( * lam4n37 ( - 1 ) ) ( * lam4n39 ( - 1 ) ) ( * lam4n42 ( - 1 ) ) ( * lam4n43 ( - 1 ) ) ( * lam4n46 global_invc1_2 ) ( * lam4n47 term_invc1_2 ) ) ( * ( - 1 ) rfc2 ) ) ( = ( + ( * lam4n8 1 ) ( * lam4n13 1 ) ( * lam4n14 ( - 1 ) ) ( * lam4n16 1 ) ( * lam4n17 1 ) ( * lam4n19 2 ) ( * lam4n20 1 ) ( * lam4n22 ( - 2 ) ) ( * lam4n24 2 ) ( * lam4n25 ( - 1 ) ) ( * lam4n26 ( - 1 ) ) ( * lam4n27 ( - 1 ) ) ( * lam4n28 ( - 1 ) ) ( * lam4n29 1 ) ( * lam4n32 1 ) ( * lam4n33 1 ) ( * lam4n34 1 ) ( * lam4n36 1 ) ( * lam4n39 ( - 1 ) ) ( * lam4n41 1 ) ( * lam4n42 1 ) ( * lam4n43 ( - 1 ) ) ( * lam4n44 1 ) ( * lam4n45 1 ) ( * lam4n46 global_invc1_3 ) ( * lam4n47 term_invc1_3 ) ) ( * ( - 1 ) rfc3 ) ) ( = ( * lam4n5 ( - 1 ) ) 0 ) ( = ( * lam4n6 ( - 1 ) ) 0 ) ( = ( * lam4n7 ( - 1 ) ) 0 ) ( = ( * lam4n8 ( - 1 ) ) 0 ) ) ) ) ( = dec2_L_L_L_L_L_L_L ( and ( >= lam5n0 0 ) ( >= lam5n1 0 ) ( >= lam5n3 0 ) ( >= lam5n4 0 ) ( >= lam5n9 0 ) ( >= lam5n10 0 ) ( >= lam5n11 0 ) ( >= lam5n12 0 ) ( >= lam5n13 0 ) ( >= lam5n14 0 ) ( >= lam5n15 0 ) ( >= lam5n16 0 ) ( >= lam5n17 0 ) ( >= lam5n18 0 ) ( >= lam5n19 0 ) ( >= lam5n20 0 ) ( >= lam5n21 0 ) ( >= lam5n22 0 ) ( >= lam5n23 0 ) ( >= lam5n24 0 ) ( >= lam5n25 0 ) ( >= lam5n26 0 ) ( >= lam5n27 0 ) ( >= lam5n28 0 ) ( >= lam5n29 0 ) ( >= lam5n30 0 ) ( >= lam5n31 0 ) ( >= lam5n32 0 ) ( >= lam5n33 0 ) ( >= lam5n34 0 ) ( >= lam5n35 0 ) ( >= lam5n36 0 ) ( >= lam5n37 0 ) ( >= lam5n38 0 ) ( >= lam5n39 0 ) ( >= lam5n40 0 ) ( >= lam5n41 0 ) ( >= lam5n42 0 ) ( >= lam5n43 0 ) ( >= lam5n44 0 ) ( >= lam5n45 0 ) ( >= lam5n46 0 ) ( >= lam5n47 0 ) ( <= 0 lam5n48 ) ( < lam5n48 1 ) ( and ( = ( + ( * ( - 1 ) lam5n0 ) ( * lam5n1 1 ) ( * lam5n3 2 ) ( * lam5n5 1 ) ( * lam5n7 1 ) ( * lam5n9 ( - 1 ) ) ( * lam5n12 50001 ) ( * lam5n13 50001 ) ( * lam5n14 50001 ) ( * lam5n15 1 ) ( * lam5n16 50001 ) ( * lam5n18 ( - 51 ) ) ( * lam5n19 50001 ) ( * lam5n20 1 ) ( * lam5n21 2 ) ( * lam5n22 50001 ) ( * lam5n23 2 ) ( * lam5n24 100004 ) ( * lam5n25 1 ) ( * lam5n27 1 ) ( * lam5n28 2 ) ( * lam5n29 2 ) ( * lam5n30 20 ) ( * lam5n31 27 ) ( * lam5n32 52 ) ( * lam5n33 55 ) ( * lam5n34 83 ) ( * lam5n35 61 ) ( * lam5n36 84 ) ( * lam5n37 81 ) ( * lam5n38 62 ) ( * lam5n39 52 ) ( * lam5n40 102 ) ( * lam5n41 93 ) ( * lam5n42 102 ) ( * lam5n43 73 ) ( * lam5n44 94 ) ( * lam5n45 99 ) ( * lam5n46 global_invc1_4 ) ( * lam5n47 term_invc1_4 ) ) ( + 1 ( * ( - 1 ) lam5n48 ) ) ) ( = ( + ( * lam5n1 1 ) ( * lam5n3 1 ) ( * lam5n5 1 ) ( * lam5n12 ( - 1 ) ) ( * lam5n13 ( - 1 ) ) ( * lam5n15 ( - 1 ) ) ( * lam5n16 ( - 1 ) ) ( * lam5n17 ( - 1 ) ) ( * lam5n19 ( - 2 ) ) ( * lam5n20 ( - 1 ) ) ( * lam5n21 ( - 1 ) ) ( * lam5n23 1 ) ( * lam5n24 1 ) ( * lam5n25 ( - 1 ) ) ( * lam5n29 ( - 1 ) ) ( * lam5n31 ( - 1 ) ) ( * lam5n32 ( - 1 ) ) ( * lam5n34 ( - 1 ) ) ( * lam5n35 ( - 1 ) ) ( * lam5n36 ( - 1 ) ) ( * lam5n38 ( - 1 ) ) ( * lam5n40 ( - 1 ) ) ( * lam5n41 ( - 1 ) ) ( * lam5n44 ( - 1 ) ) ( * lam5n45 ( - 1 ) ) ( * lam5n46 global_invc1_0 ) ( * lam5n47 term_invc1_0 ) ) ( * ( - 1 ) rfc0 ) ) ( = ( + ( * lam5n2 1 ) ( * lam5n9 ( - 1 ) ) ( * lam5n10 1 ) ( * lam5n11 ( - 1 ) ) ( * lam5n13 ( - 1 ) ) ( * lam5n14 1 ) ( * lam5n16 ( - 1 ) ) ( * lam5n17 1 ) ( * lam5n19 1 ) ( * lam5n21 1 ) ( * lam5n22 2 ) ( * lam5n26 1 ) ( * lam5n27 1 ) ( * lam5n31 ( - 1 ) ) ( * lam5n32 1 ) ( * lam5n38 1 ) ( * lam5n40 1 ) ( * lam5n41 1 ) ( * lam5n43 1 ) ( * lam5n46 global_invc1_1 ) ( * lam5n47 term_invc1_1 ) ) ( * ( - 1 ) rfc1 ) ) ( = ( + ( * lam5n1 ( - 1 ) ) ( * lam5n3 ( - 1 ) ) ( * lam5n7 1 ) ( * lam5n13 ( - 1 ) ) ( * lam5n14 ( - 1 ) ) ( * lam5n18 ( - 1 ) ) ( * lam5n19 1 ) ( * lam5n22 ( - 1 ) ) ( * lam5n23 ( - 1 ) ) ( * lam5n24 ( - 2 ) ) ( * lam5n25 ( - 1 ) ) ( * lam5n26 ( - 1 ) ) ( * lam5n27 ( - 1 ) ) ( * lam5n28 ( - 1 ) ) ( * lam5n30 ( - 1 ) ) ( * lam5n33 ( - 1 ) ) ( * lam5n37 ( - 1 ) ) ( * lam5n39 ( - 1 ) ) ( * lam5n42 ( - 1 ) ) ( * lam5n43 ( - 1 ) ) ( * lam5n46 global_invc1_2 ) ( * lam5n47 term_invc1_2 ) ) ( * ( - 1 ) rfc2 ) ) ( = ( + ( * lam5n8 1 ) ( * lam5n13 1 ) ( * lam5n14 ( - 1 ) ) ( * lam5n16 1 ) ( * lam5n17 1 ) ( * lam5n19 2 ) ( * lam5n20 1 ) ( * lam5n22 ( - 2 ) ) ( * lam5n24 2 ) ( * lam5n25 ( - 1 ) ) ( * lam5n26 ( - 1 ) ) ( * lam5n27 ( - 1 ) ) ( * lam5n28 ( - 1 ) ) ( * lam5n29 1 ) ( * lam5n32 1 ) ( * lam5n33 1 ) ( * lam5n34 1 ) ( * lam5n36 1 ) ( * lam5n39 ( - 1 ) ) ( * lam5n41 1 ) ( * lam5n42 1 ) ( * lam5n43 ( - 1 ) ) ( * lam5n44 1 ) ( * lam5n45 1 ) ( * lam5n46 global_invc1_3 ) ( * lam5n47 term_invc1_3 ) ) ( * ( - 1 ) rfc3 ) ) ( = ( * lam5n5 ( - 1 ) ) rfc0 ) ( = ( * lam5n6 ( - 1 ) ) rfc1 ) ( = ( * lam5n7 ( - 1 ) ) rfc2 ) ( = ( * lam5n8 ( - 1 ) ) rfc3 ) ) ) ) ( = bnd_and_dec2_L_L_L_L_L_L_L ( and bounded2_L_L_L_L_L_L_L dec2_L_L_L_L_L_L_L ) ) ( = GLOBAL_NT_1 ( or ( not ( = global_invc1_3 0 ) ) ( not ( = global_invc1_1 0 ) ) ( not ( = global_invc1_2 0 ) ) ( not ( = global_invc1_0 0 ) ) ) ) ( or ( and ( not ( <= ( + global_invc1_4 ( * global_invc1_0 global_V0_1 ) ( * global_invc1_1 global_V1_1 ) ( * global_invc1_2 global_V2_1 ) ( * global_invc1_3 global_V3_1 ) ) 0 ) ) ( <= ( + 0 ( * ( - 1 ) global_V1_1 ) 0 0 ( - 1 ) ) 0 ) ( <= ( + 0 global_V1_1 0 0 ) 0 ) ( <= ( + 0 ( * ( - 1 ) global_V1_1 ) 0 0 ) 0 ) ) ( and ( = global_invc1_3 0 ) ( = global_invc1_1 0 ) ( = global_invc1_2 0 ) ( = global_invc1_0 0 ) ) ) ( = TERM_NT_1 ( or ( not ( = term_invc1_3 0 ) ) ( not ( = term_invc1_1 0 ) ) ( not ( = term_invc1_2 0 ) ) ( not ( = term_invc1_0 0 ) ) ) ) ( or ( and ( not ( <= ( + term_invc1_4 ( * term_invc1_0 term_V0_1 ) ( * term_invc1_1 term_V1_1 ) ( * term_invc1_2 term_V2_1 ) ( * term_invc1_3 term_V3_1 ) ) 0 ) ) ( <= ( + 0 ( * ( - 1 ) term_V1_1 ) 0 0 ( - 1 ) ) 0 ) ( <= ( + 0 term_V1_1 0 0 ) 0 ) ( <= ( + 0 ( * ( - 1 ) term_V1_1 ) 0 0 ) 0 ) ( <= ( + ( * ( - 1 ) term_V0_1 ) 0 0 0 1 ) 0 ) ( <= ( + ( * ( - 1 ) term_V0_1 ) term_V1_1 0 term_V3_1 ) 0 ) ( <= ( + 0 0 ( * ( - 1 ) term_V2_1 ) 0 ( - 51 ) ) 0 ) ( <= ( + ( * ( - 1 ) term_V0_1 ) 0 0 term_V3_1 1 ) 0 ) ( <= ( + ( * ( - 1 ) term_V0_1 ) term_V1_1 0 0 2 ) 0 ) ( <= ( + term_V0_1 0 ( * ( - 1 ) term_V2_1 ) 0 2 ) 0 ) ( <= ( + ( * ( - 1 ) term_V0_1 ) 0 ( * ( - 1 ) term_V2_1 ) ( * ( - 1 ) term_V3_1 ) 1 ) 0 ) ( <= ( + 0 term_V1_1 ( * ( - 1 ) term_V2_1 ) ( * ( - 1 ) term_V3_1 ) ) 0 ) ( <= ( + 0 term_V1_1 ( * ( - 1 ) term_V2_1 ) ( * ( - 1 ) term_V3_1 ) 1 ) 0 ) ( <= ( + 0 0 ( * ( - 1 ) term_V2_1 ) ( * ( - 1 ) term_V3_1 ) 2 ) 0 ) ( <= ( + ( * ( - 1 ) term_V0_1 ) 0 0 term_V3_1 2 ) 0 ) ( <= ( + 0 0 ( * ( - 1 ) term_V2_1 ) 0 20 ) 0 ) ( <= ( + ( * ( - 1 ) term_V0_1 ) ( * ( - 1 ) term_V1_1 ) 0 0 27 ) 0 ) ( <= ( + ( * ( - 1 ) term_V0_1 ) term_V1_1 0 term_V3_1 52 ) 0 ) ( <= ( + 0 0 ( * ( - 1 ) term_V2_1 ) term_V3_1 55 ) 0 ) ( <= ( + ( * ( - 1 ) term_V0_1 ) 0 0 term_V3_1 83 ) 0 ) ( <= ( + ( * ( - 1 ) term_V0_1 ) 0 0 0 61 ) 0 ) ( <= ( + ( * ( - 1 ) term_V0_1 ) 0 0 term_V3_1 84 ) 0 ) ( <= ( + 0 0 ( * ( - 1 ) term_V2_1 ) 0 81 ) 0 ) ( <= ( + ( * ( - 1 ) term_V0_1 ) term_V1_1 0 0 62 ) 0 ) ( <= ( + 0 0 ( * ( - 1 ) term_V2_1 ) ( * ( - 1 ) term_V3_1 ) 52 ) 0 ) ( <= ( + ( * ( - 1 ) term_V0_1 ) term_V1_1 0 0 102 ) 0 ) ( <= ( + ( * ( - 1 ) term_V0_1 ) term_V1_1 0 term_V3_1 93 ) 0 ) ( <= ( + 0 0 ( * ( - 1 ) term_V2_1 ) term_V3_1 102 ) 0 ) ( <= ( + 0 term_V1_1 ( * ( - 1 ) term_V2_1 ) ( * ( - 1 ) term_V3_1 ) 73 ) 0 ) ( <= ( + ( * ( - 1 ) term_V0_1 ) 0 0 term_V3_1 94 ) 0 ) ( <= ( + ( * ( - 1 ) term_V0_1 ) 0 0 term_V3_1 99 ) 0 ) ) ( and ( = term_invc1_3 0 ) ( = term_invc1_1 0 ) ( = term_invc1_2 0 ) ( = term_invc1_0 0 ) ) ) ( = ALL_NON_INC_0 non_inc2_L_L_L_L_L_L_L ) ( = DIS_OR_ALL_NON_INC_0 ( or disabled2_L_L_L_L_L_L_L ALL_NON_INC_0 ) ) ( = SOME_BND_AND_DEC_0 bnd_and_dec2_L_L_L_L_L_L_L ) ( or ( not ALL_NON_INC_0 ) ( and ( >= rfc3 ( - 2 ) ) ( <= rfc3 2 ) ( >= rfc1 ( - 2 ) ) ( <= rfc1 2 ) ( >= rfc2 ( - 2 ) ) ( <= rfc2 2 ) ( >= rfc0 ( - 2 ) ) ( <= rfc0 2 ) ( or ( not ( = rfc1 0 ) ) ( not ( = rfc2 0 ) ) ( not ( = rfc0 0 ) ) ) ( >= rfc4 0 ) ( or SOME_BND_AND_DEC_0 ( or ( and ( <= ( + ( * rfc1 V1_NIV ) ( * rfc0 V0_NIV ) ( * rfc2 V2_NIV ) ( * rfc3 V3_NIV ) 1 ) ( + ( * rfc1 V5_NIV ) ( * rfc0 V4_NIV ) ( * rfc2 V6_NIV ) ( * rfc3 V7_NIV ) ) ) ( >= ( + ( * ( - 1 ) V1_NIV ) 0 0 0 ) ( + ( * ( - 1 ) V5_NIV ) 0 0 0 ) ) ( >= ( + V1_NIV 0 0 0 ) ( + V5_NIV 0 0 0 ) ) ( >= ( + 0 ( * ( - 1 ) V0_NIV ) V2_NIV 0 ) ( + 0 ( * ( - 1 ) V4_NIV ) V6_NIV 0 ) ) ( >= ( + 0 ( * ( - 1 ) V0_NIV ) 0 0 ) ( + 0 ( * ( - 1 ) V4_NIV ) 0 0 ) ) ( >= ( + 0 0 ( * ( - 1 ) V2_NIV ) 0 ) ( + 0 0 ( * ( - 1 ) V6_NIV ) 0 ) ) ( >= ( + ( * ( - 1 ) V1_NIV ) ( * ( - 1 ) V0_NIV ) ( * ( - 1 ) V2_NIV ) V3_NIV ) ( + ( * ( - 1 ) V5_NIV ) ( * ( - 1 ) V4_NIV ) ( * ( - 1 ) V6_NIV ) V7_NIV ) ) ( >= ( + V1_NIV 0 ( * ( - 1 ) V2_NIV ) ( * ( - 1 ) V3_NIV ) ) ( + V5_NIV 0 ( * ( - 1 ) V6_NIV ) ( * ( - 1 ) V7_NIV ) ) ) ( >= ( + ( * ( - 1 ) V1_NIV ) ( * ( - 1 ) V0_NIV ) 0 V3_NIV ) ( + ( * ( - 1 ) V5_NIV ) ( * ( - 1 ) V4_NIV ) 0 V7_NIV ) ) ( >= ( + V1_NIV 0 ( * ( - 1 ) V2_NIV ) V3_NIV ) ( + V5_NIV 0 ( * ( - 1 ) V6_NIV ) V7_NIV ) ) ( >= ( + ( * ( - 2 ) V1_NIV ) V0_NIV ( * ( - 2 ) V2_NIV ) 0 ) ( + ( * ( - 2 ) V5_NIV ) V4_NIV ( * ( - 2 ) V6_NIV ) 0 ) ) ( >= ( + V1_NIV ( * ( - 2 ) V0_NIV ) V2_NIV ( * 2 V3_NIV ) ) ( + V5_NIV ( * ( - 2 ) V4_NIV ) V6_NIV ( * 2 V7_NIV ) ) ) ( >= ( + 0 ( * ( - 1 ) V0_NIV ) 0 ( * 2 V3_NIV ) ) ( + 0 ( * ( - 1 ) V4_NIV ) 0 ( * 2 V7_NIV ) ) ) ( >= ( + ( * 2 V1_NIV ) 0 ( * ( - 1 ) V2_NIV ) ( * ( - 2 ) V3_NIV ) ) ( + ( * 2 V5_NIV ) 0 ( * ( - 1 ) V6_NIV ) ( * ( - 2 ) V7_NIV ) ) ) ( >= ( + ( * 2 V1_NIV ) V0_NIV ( * ( - 2 ) V2_NIV ) ( * ( - 2 ) V3_NIV ) ) ( + ( * 2 V5_NIV ) V4_NIV ( * ( - 2 ) V6_NIV ) ( * ( - 2 ) V7_NIV ) ) ) ( >= ( + ( * 2 V1_NIV ) V0_NIV ( * ( - 2 ) V2_NIV ) V3_NIV ) ( + ( * 2 V5_NIV ) V4_NIV ( * ( - 2 ) V6_NIV ) V7_NIV ) ) ( >= ( + 0 V0_NIV ( * ( - 2 ) V2_NIV ) ( * 2 V3_NIV ) ) ( + 0 V4_NIV ( * ( - 2 ) V6_NIV ) ( * 2 V7_NIV ) ) ) ( >= ( + 0 V0_NIV ( * ( - 1 ) V2_NIV ) V3_NIV ) ( + 0 V4_NIV ( * ( - 1 ) V6_NIV ) V7_NIV ) ) ( >= ( + ( * ( - 1 ) V1_NIV ) V0_NIV ( * ( - 1 ) V2_NIV ) ( * ( - 1 ) V3_NIV ) ) ( + ( * ( - 1 ) V5_NIV ) V4_NIV ( * ( - 1 ) V6_NIV ) ( * ( - 1 ) V7_NIV ) ) ) ) ( and ( = rfc1 0 ) ( = rfc1 0 ) ( or ( = rfc0 0 ) ( = rfc2 0 ) ) ( = rfc0 0 ) ( = rfc2 0 ) ( or ( = rfc1 0 ) ( = rfc0 0 ) ( = rfc2 0 ) ( = rfc3 0 ) ) ( or ( = rfc1 0 ) ( = rfc2 0 ) ( = rfc3 0 ) ) ( or ( = rfc1 0 ) ( = rfc0 0 ) ( = rfc3 0 ) ) ( or ( = rfc1 0 ) ( = rfc2 0 ) ( = rfc3 0 ) ) ( or ( = rfc1 0 ) ( = rfc0 0 ) ( = rfc2 0 ) ) ( or ( = rfc1 0 ) ( = rfc0 0 ) ( = rfc2 0 ) ( = rfc3 0 ) ) ( or ( = rfc0 0 ) ( = rfc3 0 ) ) ( or ( = rfc1 0 ) ( = rfc2 0 ) ( = rfc3 0 ) ) ( or ( = rfc1 0 ) ( = rfc0 0 ) ( = rfc2 0 ) ( = rfc3 0 ) ) ( or ( = rfc1 0 ) ( = rfc0 0 ) ( = rfc2 0 ) ( = rfc3 0 ) ) ( or ( = rfc0 0 ) ( = rfc2 0 ) ( = rfc3 0 ) ) ( or ( = rfc0 0 ) ( = rfc2 0 ) ( = rfc3 0 ) ) ( or ( = rfc1 0 ) ( = rfc0 0 ) ( = rfc2 0 ) ( = rfc3 0 ) ) ) ) ) ) ) ( or GLOBAL_NT_1 TERM_NT_1 ALL_NON_INC_0 ) ))
(check-sat)
(exit)
